max_width = 30;
n_blocks = 29;
width = [7, 6, 4, 5, 10, 6, 9, 7, 7, 2, 6, 6, 4, 9, 10, 7, 2, 3, 11, 8, 7, 6, 3, 11, 1, 4, 4, 4, 2];
height = [25, 24, 23, 21, 19, 18, 16, 13, 12, 12, 11, 10, 10, 9, 7, 7, 7, 6, 5, 5, 5, 5, 5, 4, 4, 2, 2, 1, 1];
